
c turning on binary mode checking

c parsing input formula with 5806 variables and 25718 clauses

c finished parsing, read 1273 bytes from proof file

c detected empty clause; start verification via backward checking

c 1275 of 25718 clauses in core                            

c 42 of 241 lemmas in core using 10047 resolution steps

c 0 RAT lemmas in core; 5 redundant literals in core lemmas

s VERIFIED

c verification time: 0.058 seconds
